# Solution for model GasLib-40
# Objective value = 2.2351752806717876e+01
loadshed[innode_1] 0
loadshed[innode_2] 0
loadshed[innode_3] 0
loadshed[innode_4] 0
loadshed[innode_5] 0
loadshed[innode_6] 0
loadshed[innode_7] 0
loadshed[innode_8] 0
loadshed[source_1] -2.5178940009716144e-01
loadshed[source_2] 1.2351233424505736e-01
loadshed[source_3] 2.6966307086711383e-01
loadshed[sink_1] 0
loadshed[sink_2] 0
loadshed[sink_3] 0
loadshed[sink_4] 0
loadshed[sink_5] 0
loadshed[sink_6] 0
loadshed[sink_7] 0
loadshed[sink_8] 0
loadshed[sink_9] 0
loadshed[sink_10] 0
loadshed[sink_11] 0
loadshed[sink_12] 1
loadshed[sink_13] 0
loadshed[sink_14] 0
loadshed[sink_15] 0
loadshed[sink_16] 0
loadshed[sink_17] 0
loadshed[sink_18] 0
loadshed[sink_19] 0
loadshed[sink_20] 0
loadshed[sink_21] 3.6673138181204828e-01
loadshed[sink_22] 0
loadshed[sink_23] 0
loadshed[sink_24] 0
loadshed[sink_25] 0
loadshed[sink_26] 0
loadshed[sink_27] 0
loadshed[sink_28] 0
loadshed[sink_29] 0
flow[source_1,sink_3] 1.9789573398063806e+02
flow[innode_1,sink_16] 1.6354166666666970e+01
flow[innode_6,sink_13] -9.8000133131989031e-01
flow[sink_13,sink_14] -1.7334167997986558e+01
flow[sink_14,sink_10] -3.3688334664653226e+01
flow[sink_25,sink_26] 1.5331959782989094e+02
flow[sink_26,sink_9] 8.1770833333333655e+01
flow[sink_9,sink_18] 6.5416666666666671e+01
flow[sink_26,sink_4] 5.5194597829890640e+01
flow[sink_4,sink_20] -1.6541429519903740e+01
flow[sink_18,sink_6] 4.9062500000000313e+01
flow[sink_25,innode_8] -1.6518740064730170e+02
flow[sink_6,sink_7] 0
flow[sink_6,sink_22] 3.2708333333333641e+01
flow[sink_7,sink_24] 2.6710747193282121e+01
flow[sink_22,sink_1] 1.6354166666666970e+01
flow[sink_24,sink_21] 1.0356580526615460e+01
flow[sink_21,sink_12] 0
flow[sink_7,sink_5] -4.3064913859948788e+01
flow[sink_5,sink_17] -5.9419080526615460e+01
flow[sink_17,sink_4] -5.5381860683127712e+01
flow[sink_17,sink_8] -2.0391386510154415e+01
flow[sink_3,sink_23] 16.3541666666697
flow[sink_8,sink_20] -3.6745553176821083e+01
flow[sink_25,sink_20] 6.9641149363391520e+01
flow[sink_25,sink_15] -7.3147511881327034e+01
flow[sink_15,sink_29] 0
flow[sink_29,sink_28] 1.6354166666667879e+01
flow[sink_29,sink_2] 1.0585584521466038e+02
flow[sink_2,sink_15] 89.5016785479937
flow[sink_29,innode_7] -1.3856417854799491e+02
flow[innode_4,sink_19] 0
flow[sink_19,innode_3] 4.0382058025267696e+01
flow[innode_4,innode_5] 1.1545916799798717e+02
flow[sink_27,innode_5] -1.1545916799798717e+02
flow[sink_27,sink_19] 99.1050013313205
flow[sink_10,sink_11] 3.2708333333333641e+01
flow[sink_10,innode_2] -4.2368776639385835e+01
flow[sink_10,innode_3] -4.0382058025267696e+01
flow[innode_6,sink_25] 9.8000133131989031e-01
flow[sink_11,innode_1] 1.6354166666666970e+01
flow[sink_19,innode_2] 4.2368776639385835e+01
flow[source_3,innode_4] 1.1545916799798717e+02
flow[source_2,innode_7] 1.3856417854799491e+02
flow[sink_3,innode_8] 1.6518740064730170e+02
pressure[innode_1] 7.5456846232205564e+01
pressure[innode_2] 7.7847912373979270e+01
pressure[innode_3] 7.7758490879254310e+01
pressure[innode_4] 81.01325
pressure[innode_5] 80.9338310960702
pressure[innode_6] 7.3978713059768211e+01
pressure[innode_7] 81.01325
pressure[innode_8] 8.0351760160213260e+01
pressure[source_1] 81.01325
pressure[source_2] 81.01325
pressure[source_3] 81.01325
pressure[sink_1] 5.2508145990658562e+01
pressure[sink_2] 7.4625753023532340e+01
pressure[sink_3] 8.0351760160213260e+01
pressure[sink_4] 5.6162919806127022e+01
pressure[sink_5] 4.9620115701075775e+01
pressure[sink_6] 5.4609223601045933e+01
pressure[sink_7] 3.1709754794846898e+01
pressure[sink_8] 5.4815827695406163e+01
pressure[sink_9] 5.8286308404504219e+01
pressure[sink_10] 7.5608547539809109e+01
pressure[sink_11] 7.5456846232205564e+01
pressure[sink_12] 1.01325
pressure[sink_13] 7.3984115643334334e+01
pressure[sink_14] 7.4015136613511359e+01
pressure[sink_15] 7.4333549768925366e+01
pressure[sink_16] 7.4435196397387884e+01
pressure[sink_17] 5.4046407706858574e+01
pressure[sink_18] 5.5919338429305562e+01
pressure[sink_19] 7.7847912373979270e+01
pressure[sink_20] 5.7376475989156695e+01
pressure[sink_21] 1.01325
pressure[sink_22] 5.3571915133013569e+01
pressure[sink_23] 8.0187042148553473e+01
pressure[sink_24] 1.1279395069213658e+00
pressure[sink_25] 7.3978713059768211e+01
pressure[sink_26] 6.3180503824215570e+01
pressure[sink_27] 7.9975733347289591e+01
pressure[sink_28] 7.7011918774769768e+01
pressure[sink_29] 7.7307201048386943e+01
interdiction[source_1,sink_3] 0
interdiction[innode_1,sink_16] 0
interdiction[innode_6,sink_13] 0
interdiction[sink_13,sink_14] 0
interdiction[sink_14,sink_10] 0
interdiction[sink_25,sink_26] 0
interdiction[sink_26,sink_9] 0
interdiction[sink_9,sink_18] 0
interdiction[sink_26,sink_4] 0
interdiction[sink_4,sink_20] 0
interdiction[sink_18,sink_6] 0
interdiction[sink_25,innode_8] 0
interdiction[sink_6,sink_7] 1
interdiction[sink_6,sink_22] 0
interdiction[sink_7,sink_24] 0
interdiction[sink_22,sink_1] 0
interdiction[sink_24,sink_21] 0
interdiction[sink_21,sink_12] 0
interdiction[sink_7,sink_5] 0
interdiction[sink_5,sink_17] 0
interdiction[sink_17,sink_4] 0
interdiction[sink_17,sink_8] 0
interdiction[sink_3,sink_23] 0
interdiction[sink_8,sink_20] 0
interdiction[sink_25,sink_20] 0
interdiction[sink_25,sink_15] 0
interdiction[sink_15,sink_29] 1
interdiction[sink_29,sink_28] 0
interdiction[sink_29,sink_2] 0
interdiction[sink_2,sink_15] 0
interdiction[sink_29,innode_7] 0
interdiction[innode_4,sink_19] 1
interdiction[sink_19,innode_3] 0
interdiction[innode_4,innode_5] 0
interdiction[sink_27,innode_5] 0
interdiction[sink_27,sink_19] 0
interdiction[sink_10,sink_11] 0
interdiction[sink_10,innode_2] 0
interdiction[sink_10,innode_3] 0
interdiction[innode_6,sink_25] 0
interdiction[sink_11,innode_1] 0
interdiction[sink_19,innode_2] 0
interdiction[source_3,innode_4] 0
interdiction[source_2,innode_7] 0
interdiction[sink_3,innode_8] 0
WCcheckFlow[source_1,sink_3] 39
WCcheckFlow[innode_1,sink_16] 1
WCcheckFlow[innode_6,sink_13] 13
WCcheckFlow[sink_13,sink_14] 12
WCcheckFlow[sink_14,sink_10] 11
WCcheckFlow[sink_25,sink_26] 15
WCcheckFlow[sink_26,sink_9] 5
WCcheckFlow[sink_9,sink_18] 4
WCcheckFlow[sink_26,sink_4] 9
WCcheckFlow[sink_4,sink_20] 1
WCcheckFlow[sink_18,sink_6] 3
WCcheckFlow[sink_25,innode_8] -36
WCcheckFlow[sink_6,sink_7] 0
WCcheckFlow[sink_6,sink_22] 2
WCcheckFlow[sink_7,sink_24] 3
WCcheckFlow[sink_22,sink_1] 1
WCcheckFlow[sink_24,sink_21] 2
WCcheckFlow[sink_21,sink_12] 1
WCcheckFlow[sink_7,sink_5] -4
WCcheckFlow[sink_5,sink_17] -5
WCcheckFlow[sink_17,sink_4] -7
WCcheckFlow[sink_17,sink_8] 1
WCcheckFlow[sink_3,sink_23] 1
WCcheckFlow[sink_8,sink_20] 0
WCcheckFlow[sink_25,sink_20] 0
WCcheckFlow[sink_25,sink_15] 6
WCcheckFlow[sink_15,sink_29] 0
WCcheckFlow[sink_29,sink_28] 1
WCcheckFlow[sink_29,sink_2] -4
WCcheckFlow[sink_2,sink_15] -5
WCcheckFlow[sink_29,innode_7] 2
WCcheckFlow[innode_4,sink_19] 0
WCcheckFlow[sink_19,innode_3] -5
WCcheckFlow[innode_4,innode_5] -2
WCcheckFlow[sink_27,innode_5] 3
WCcheckFlow[sink_27,sink_19] -4
WCcheckFlow[sink_10,sink_11] 3
WCcheckFlow[sink_10,innode_2] 1
WCcheckFlow[sink_10,innode_3] 6
WCcheckFlow[innode_6,sink_25] -14
WCcheckFlow[sink_11,innode_1] 2
WCcheckFlow[sink_19,innode_2] 0
WCcheckFlow[source_3,innode_4] -1
WCcheckFlow[source_2,innode_7] -1
WCcheckFlow[sink_3,innode_8] 37
